20J7M/DAT/20J7MNNL-20.dat
20 7
25.9211 25.9211
25.4919 25.4919
22.8736 22.8736
29.2314 29.2314
29.9916 29.9916
28.8949 28.8949
32.6391 32.6391
15.1681 15.1681
29.048 29.048
20.7168 20.7168
26.098 26.098
27.2804 27.2804
18.5541 18.5541
29.0548 29.0548
28.5606 28.5606
15.57 15.57
23.341 23.341
24.8887 24.8887
20.7881 20.7881
29.4616 29.4616
503.5738