20J7M/SOL/20J7MNNL-20.sol
solution status: optimal solution found
objective value:                     71.9391142857143
x#1#1                                               1 	(obj:0)
x#2#2                                               1 	(obj:0)
x#3#1                               0.918735385522424 	(obj:0)
x#3#6                              0.0812646144775758 	(obj:0)
x#4#7                                               1 	(obj:0)
x#5#4                               0.619613968101544 	(obj:0)
x#5#7                               0.380386031898456 	(obj:0)
x#6#3                                               1 	(obj:0)
x#7#4                                               1 	(obj:0)
x#8#6                                               1 	(obj:0)
x#9#3                               0.587329346500373 	(obj:0)
x#9#5                               0.412670653499627 	(obj:0)
x#10#4                                              1 	(obj:0)
x#11#1                              0.958051520094588 	(obj:0)
x#11#3                             0.0419484799054122 	(obj:0)
x#12#5                                              1 	(obj:0)
x#13#6                                              1 	(obj:0)
x#14#5                              0.936749570761852 	(obj:0)
x#14#7                             0.0632504292381484 	(obj:0)
x#15#2                              0.809024120141533 	(obj:0)
x#15#5                              0.190975879858467 	(obj:0)
x#16#6                                              1 	(obj:0)
x#17#2                                              1 	(obj:0)
x#18#3                                              1 	(obj:0)
x#19#6                                              1 	(obj:0)
x#20#7                                              1 	(obj:0)
z                                    71.9391142857143 	(obj:1)
